# Solution for model earliness
# Objective value = 1.3754000000000122e+01
E(i1) 0
E(i2) 7.8300000000003322e-01
E(i3) 9.8500000000002430e-01
E(i4) 5.0000000000001776e-01
E(i5) 0
E(i6) 1.5720000000000347e+00
E(i7) 0
E(i8) 0
E(i9) 0
E(i10) 0
E(i11) 2.2820000000000462e+00
E(i12) 0
E(i13) 7.6319999999999624e+00
E(i14) 0
E(i15) 3.5527136788005009e-15
E(i16) 0
E(i17) 0
Y(i1,u1) 0
Y(i1,u4) 1
Y(i2,u1) 0
Y(i2,u4) 1
Y(i3,u1) 0
Y(i3,u4) 1
Y(i4,u3) 1
Y(i4,u4) 0
Y(i5,u3) 0
Y(i5,u4) 1
Y(i6,u1) 0
Y(i6,u4) 1
Y(i7,u1) 0
Y(i7,u3) 1
Y(i7,u4) 0
Y(i8,u3) 1
Y(i8,u4) 0
Y(i9,u3) 1
Y(i9,u4) 0
Y(i10,u2) 1
Y(i11,u2) 1
Y(i11,u4) 0
Y(i12,u2) 1
Y(i12,u3) 0
Y(i12,u4) 0
Y(i13,u1) 1
Y(i13,u4) 0
Y(i14,u1) 1
Y(i14,u4) 0
Y(i15,u1) 0
Y(i15,u4) 1
Y(i16,u1) 0
Y(i16,u4) 1
Y(i17,u1) 1
Y(i17,u4) 0
C(i1) 15
C(i2) 2.9216999999999967e+01
C(i3) 2.1014999999999976e+01
C(i4) 2.4499999999999982e+01
C(i5) 20
C(i6) 2.8427999999999965e+01
C(i7) 21
C(i8) 26
C(i9) 30
C(i10) 29
C(i11) 2.7717999999999954e+01
C(i12) 21
C(i13) 2.2368000000000038e+01
C(i14) 25
C(i15) 2.3999999999999996e+01
C(i16) 3.0000000000000004e+01
C(i17) 3.0000000000000004e+01
Seq(i1,i2,u1) 0
X(i1,i2,u1) 0
Seq(i1,i2,u4) 0
X(i1,i2,u4) 1
X(i1,i3,u1) 0
X(i1,i3,u4) 1
Seq(i1,i4,u4) 0
X(i1,i4,u4) 0
Seq(i1,i5,u4) 1
X(i1,i5,u4) 1
Seq(i1,i6,u1) 0
X(i1,i6,u1) 0
Seq(i1,i6,u4) 0
X(i1,i6,u4) 1
X(i1,i7,u1) 0
X(i1,i7,u4) 0
Seq(i1,i8,u4) 0
X(i1,i8,u4) 0
X(i1,i9,u4) 0
Seq(i1,i11,u4) 0
X(i1,i11,u4) 0
Seq(i1,i12,u4) 0
X(i1,i12,u4) 0
Seq(i1,i13,u1) 0
X(i1,i13,u1) 0
Seq(i1,i13,u4) 0
X(i1,i13,u4) 0
Seq(i1,i14,u1) 0
X(i1,i14,u1) 0
Seq(i1,i14,u4) 0
X(i1,i14,u4) 0
Seq(i1,i15,u1) 0
X(i1,i15,u1) 0
Seq(i1,i15,u4) 0
X(i1,i15,u4) 1
Seq(i1,i16,u1) 0
X(i1,i16,u1) 0
Seq(i1,i16,u4) 0
X(i1,i16,u4) 1
Seq(i1,i17,u1) 0
X(i1,i17,u1) 0
Seq(i1,i17,u4) 0
X(i1,i17,u4) 0
Seq(i2,i1,u1) 0
X(i2,i1,u1) 0
Seq(i2,i1,u4) 0
X(i2,i1,u4) 0
Seq(i2,i3,u1) 0
X(i2,i3,u1) 0
Seq(i2,i3,u4) 0
X(i2,i3,u4) 0
Seq(i2,i4,u4) 0
X(i2,i4,u4) 0
Seq(i2,i5,u4) 0
X(i2,i5,u4) 0
Seq(i2,i6,u1) 0
X(i2,i6,u1) 0
Seq(i2,i6,u4) 0
X(i2,i6,u4) 0
Seq(i2,i7,u1) 0
X(i2,i7,u1) 0
Seq(i2,i7,u4) 0
X(i2,i7,u4) 0
Seq(i2,i8,u4) 0
X(i2,i8,u4) 0
Seq(i2,i9,u4) 0
X(i2,i9,u4) 0
Seq(i2,i11,u4) 0
X(i2,i11,u4) 0
Seq(i2,i12,u4) 0
X(i2,i12,u4) 0
Seq(i2,i13,u1) 0
X(i2,i13,u1) 0
Seq(i2,i13,u4) 0
X(i2,i13,u4) 0
Seq(i2,i14,u1) 0
X(i2,i14,u1) 0
Seq(i2,i14,u4) 0
X(i2,i14,u4) 0
Seq(i2,i15,u1) 0
X(i2,i15,u1) 0
Seq(i2,i15,u4) 0
X(i2,i15,u4) 0
X(i2,i16,u1) 0
X(i2,i16,u4) 1
Seq(i2,i17,u1) 0
X(i2,i17,u1) 0
Seq(i2,i17,u4) 0
X(i2,i17,u4) 0
Seq(i3,i1,u1) 0
X(i3,i1,u1) 0
Seq(i3,i1,u4) 0
X(i3,i1,u4) 0
Seq(i3,i2,u1) 0
X(i3,i2,u1) 0
Seq(i3,i2,u4) 0
X(i3,i2,u4) 1
Seq(i3,i4,u4) 0
X(i3,i4,u4) 0
Seq(i3,i5,u4) 0
X(i3,i5,u4) 0
Seq(i3,i6,u1) 0
X(i3,i6,u1) 0
Seq(i3,i6,u4) 0
X(i3,i6,u4) 1
Seq(i3,i7,u1) 0
X(i3,i7,u1) 0
Seq(i3,i7,u4) 0
X(i3,i7,u4) 0
Seq(i3,i8,u4) 0
X(i3,i8,u4) 0
Seq(i3,i9,u4) 0
X(i3,i9,u4) 0
Seq(i3,i11,u4) 0
X(i3,i11,u4) 0
Seq(i3,i12,u4) 0
X(i3,i12,u4) 0
Seq(i3,i13,u1) 0
X(i3,i13,u1) 0
Seq(i3,i13,u4) 0
X(i3,i13,u4) 0
X(i3,i14,u1) 0
X(i3,i14,u4) 0
X(i3,i15,u1) 0
X(i3,i15,u4) 1
Seq(i3,i16,u1) 0
X(i3,i16,u1) 0
Seq(i3,i16,u4) 0
X(i3,i16,u4) 1
Seq(i3,i17,u1) 0
X(i3,i17,u1) 0
Seq(i3,i17,u4) 0
X(i3,i17,u4) 0
Seq(i4,i1,u4) 0
X(i4,i1,u4) 0
Seq(i4,i2,u4) 0
X(i4,i2,u4) 0
Seq(i4,i3,u4) 0
X(i4,i3,u4) 0
Seq(i4,i5,u3) 0
X(i4,i5,u3) 0
Seq(i4,i5,u4) 0
X(i4,i5,u4) 0
Seq(i4,i6,u4) 0
X(i4,i6,u4) 0
Seq(i4,i7,u3) 0
X(i4,i7,u3) 0
Seq(i4,i7,u4) 0
X(i4,i7,u4) 0
X(i4,i8,u3) 1
X(i4,i8,u4) 0
Seq(i4,i9,u3) 0
X(i4,i9,u3) 1
Seq(i4,i9,u4) 0
X(i4,i9,u4) 0
Seq(i4,i11,u4) 0
X(i4,i11,u4) 0
Seq(i4,i12,u3) 0
X(i4,i12,u3) 0
Seq(i4,i12,u4) 0
X(i4,i12,u4) 0
Seq(i4,i13,u4) 0
X(i4,i13,u4) 0
Seq(i4,i14,u4) 0
X(i4,i14,u4) 0
Seq(i4,i15,u4) 0
X(i4,i15,u4) 0
Seq(i4,i16,u4) 0
X(i4,i16,u4) 0
Seq(i4,i17,u4) 0
X(i4,i17,u4) 0
Seq(i5,i1,u4) 0
X(i5,i1,u4) 0
Seq(i5,i2,u4) 0
X(i5,i2,u4) 1
X(i5,i3,u4) 1
Seq(i5,i4,u3) 0
X(i5,i4,u3) 0
Seq(i5,i4,u4) 0
X(i5,i4,u4) 0
Seq(i5,i6,u4) 0
X(i5,i6,u4) 1
Seq(i5,i7,u3) 0
X(i5,i7,u3) 0
Seq(i5,i7,u4) 0
X(i5,i7,u4) 0
Seq(i5,i8,u3) 0
X(i5,i8,u3) 0
Seq(i5,i8,u4) 0
X(i5,i8,u4) 0
Seq(i5,i9,u3) 0
X(i5,i9,u3) 0
Seq(i5,i9,u4) 0
X(i5,i9,u4) 0
Seq(i5,i11,u4) 0
X(i5,i11,u4) 0
Seq(i5,i12,u3) 0
X(i5,i12,u3) 0
Seq(i5,i12,u4) 0
X(i5,i12,u4) 0
Seq(i5,i13,u4) 0
X(i5,i13,u4) 0
Seq(i5,i14,u4) 0
X(i5,i14,u4) 0
Seq(i5,i15,u4) 0
X(i5,i15,u4) 1
Seq(i5,i16,u4) 0
X(i5,i16,u4) 1
Seq(i5,i17,u4) 0
X(i5,i17,u4) 0
Seq(i6,i1,u1) 0
X(i6,i1,u1) 0
Seq(i6,i1,u4) 0
X(i6,i1,u4) 0
X(i6,i2,u1) 0
X(i6,i2,u4) 1
Seq(i6,i3,u1) 0
X(i6,i3,u1) 0
Seq(i6,i3,u4) 0
X(i6,i3,u4) 0
Seq(i6,i4,u4) 0
X(i6,i4,u4) 0
Seq(i6,i5,u4) 0
X(i6,i5,u4) 0
Seq(i6,i7,u1) 0
X(i6,i7,u1) 0
Seq(i6,i7,u4) 0
X(i6,i7,u4) 0
Seq(i6,i8,u4) 0
X(i6,i8,u4) 0
Seq(i6,i9,u4) 0
X(i6,i9,u4) 0
Seq(i6,i11,u4) 0
X(i6,i11,u4) 0
Seq(i6,i12,u4) 0
X(i6,i12,u4) 0
Seq(i6,i13,u1) 0
X(i6,i13,u1) 0
Seq(i6,i13,u4) 0
X(i6,i13,u4) 0
Seq(i6,i14,u1) 0
X(i6,i14,u1) 0
Seq(i6,i14,u4) 0
X(i6,i14,u4) 0
Seq(i6,i15,u1) 0
X(i6,i15,u1) 0
Seq(i6,i15,u4) 0
X(i6,i15,u4) 0
Seq(i6,i16,u1) 0
X(i6,i16,u1) 0
Seq(i6,i16,u4) 0
X(i6,i16,u4) 1
Seq(i6,i17,u1) 0
X(i6,i17,u1) 0
Seq(i6,i17,u4) 0
X(i6,i17,u4) 0
Seq(i7,i1,u1) 0
X(i7,i1,u1) 0
Seq(i7,i1,u4) 0
X(i7,i1,u4) 0
Seq(i7,i2,u1) 0
X(i7,i2,u1) 0
Seq(i7,i2,u4) 0
X(i7,i2,u4) 0
X(i7,i3,u1) 0
X(i7,i3,u4) 0
X(i7,i4,u3) 1
X(i7,i4,u4) 0
Seq(i7,i5,u3) 0
X(i7,i5,u3) 0
Seq(i7,i5,u4) 0
X(i7,i5,u4) 0
Seq(i7,i6,u1) 0
X(i7,i6,u1) 0
Seq(i7,i6,u4) 0
X(i7,i6,u4) 0
Seq(i7,i8,u3) 0
X(i7,i8,u3) 1
Seq(i7,i8,u4) 0
X(i7,i8,u4) 0
Seq(i7,i9,u3) 0
X(i7,i9,u3) 1
Seq(i7,i9,u4) 0
X(i7,i9,u4) 0
Seq(i7,i11,u4) 0
X(i7,i11,u4) 0
Seq(i7,i12,u3) 0
X(i7,i12,u3) 0
Seq(i7,i12,u4) 0
X(i7,i12,u4) 0
Seq(i7,i13,u1) 0
X(i7,i13,u1) 0
Seq(i7,i13,u4) 0
X(i7,i13,u4) 0
Seq(i7,i14,u1) 0
X(i7,i14,u1) 0
Seq(i7,i14,u4) 0
X(i7,i14,u4) 0
Seq(i7,i15,u1) 0
X(i7,i15,u1) 0
Seq(i7,i15,u4) 0
X(i7,i15,u4) 0
Seq(i7,i16,u1) 0
X(i7,i16,u1) 0
Seq(i7,i16,u4) 0
X(i7,i16,u4) 0
Seq(i7,i17,u1) 0
X(i7,i17,u1) 0
Seq(i7,i17,u4) 0
X(i7,i17,u4) 0
Seq(i8,i1,u4) 0
X(i8,i1,u4) 0
Seq(i8,i2,u4) 0
X(i8,i2,u4) 0
Seq(i8,i3,u4) 0
X(i8,i3,u4) 0
Seq(i8,i4,u3) 0
X(i8,i4,u3) 0
Seq(i8,i4,u4) 0
X(i8,i4,u4) 0
Seq(i8,i5,u3) 0
X(i8,i5,u3) 0
Seq(i8,i5,u4) 0
X(i8,i5,u4) 0
X(i8,i6,u4) 0
Seq(i8,i7,u3) 0
X(i8,i7,u3) 0
Seq(i8,i7,u4) 0
X(i8,i7,u4) 0
Seq(i8,i9,u3) 1
X(i8,i9,u3) 1
Seq(i8,i9,u4) 0
X(i8,i9,u4) 0
Seq(i8,i11,u4) 0
X(i8,i11,u4) 0
Seq(i8,i12,u3) 0
X(i8,i12,u3) 0
Seq(i8,i12,u4) 0
X(i8,i12,u4) 0
Seq(i8,i13,u4) 0
X(i8,i13,u4) 0
Seq(i8,i14,u4) 0
X(i8,i14,u4) 0
Seq(i8,i15,u4) 0
X(i8,i15,u4) 0
Seq(i8,i16,u4) 0
X(i8,i16,u4) 0
Seq(i8,i17,u4) 0
X(i8,i17,u4) 0
Seq(i9,i1,u4) 0
X(i9,i1,u4) 0
Seq(i9,i2,u4) 0
X(i9,i2,u4) 0
Seq(i9,i3,u4) 0
X(i9,i3,u4) 0
Seq(i9,i4,u3) 0
X(i9,i4,u3) 0
Seq(i9,i4,u4) 0
X(i9,i4,u4) 0
Seq(i9,i5,u3) 0
X(i9,i5,u3) 0
Seq(i9,i5,u4) 0
X(i9,i5,u4) 0
Seq(i9,i6,u4) 0
X(i9,i6,u4) 0
Seq(i9,i7,u3) 0
X(i9,i7,u3) 0
Seq(i9,i7,u4) 0
X(i9,i7,u4) 0
Seq(i9,i8,u3) 0
X(i9,i8,u3) 0
Seq(i9,i8,u4) 0
X(i9,i8,u4) 0
Seq(i9,i11,u4) 0
X(i9,i11,u4) 0
Seq(i9,i12,u3) 0
X(i9,i12,u3) 0
Seq(i9,i12,u4) 0
X(i9,i12,u4) 0
Seq(i9,i13,u4) 0
X(i9,i13,u4) 0
Seq(i9,i14,u4) 0
X(i9,i14,u4) 0
Seq(i9,i15,u4) 0
X(i9,i15,u4) 0
Seq(i9,i16,u4) 0
X(i9,i16,u4) 0
Seq(i9,i17,u4) 0
X(i9,i17,u4) 0
Seq(i10,i11,u2) 1
X(i10,i11,u2) 0
Seq(i10,i12,u2) 0
X(i10,i12,u2) 0
Seq(i11,i1,u4) 0
X(i11,i1,u4) 0
Seq(i11,i2,u4) 0
X(i11,i2,u4) 0
Seq(i11,i3,u4) 0
X(i11,i3,u4) 0
Seq(i11,i4,u4) 0
X(i11,i4,u4) 0
Seq(i11,i5,u4) 0
X(i11,i5,u4) 0
Seq(i11,i6,u4) 0
X(i11,i6,u4) 0
Seq(i11,i7,u4) 0
X(i11,i7,u4) 0
Seq(i11,i8,u4) 0
X(i11,i8,u4) 0
Seq(i11,i9,u4) 0
X(i11,i9,u4) 0
X(i11,i10,u2) 1
Seq(i11,i12,u2) 0
X(i11,i12,u2) 0
Seq(i11,i12,u4) 0
X(i11,i12,u4) 0
Seq(i11,i13,u4) 0
X(i11,i13,u4) 0
Seq(i11,i14,u4) 0
X(i11,i14,u4) 0
Seq(i11,i15,u4) 0
X(i11,i15,u4) 0
Seq(i11,i16,u4) 0
X(i11,i16,u4) 0
Seq(i11,i17,u4) 0
X(i11,i17,u4) 0
Seq(i12,i1,u4) 0
X(i12,i1,u4) 0
Seq(i12,i2,u4) 0
X(i12,i2,u4) 0
Seq(i12,i3,u4) 0
X(i12,i3,u4) 0
Seq(i12,i4,u3) 0
X(i12,i4,u3) 0
Seq(i12,i4,u4) 0
X(i12,i4,u4) 0
Seq(i12,i5,u3) 0
X(i12,i5,u3) 0
Seq(i12,i5,u4) 0
X(i12,i5,u4) 0
Seq(i12,i6,u4) 0
X(i12,i6,u4) 0
Seq(i12,i7,u3) 0
X(i12,i7,u3) 0
Seq(i12,i7,u4) 0
X(i12,i7,u4) 0
Seq(i12,i8,u3) 0
X(i12,i8,u3) 0
Seq(i12,i8,u4) 0
X(i12,i8,u4) 0
Seq(i12,i9,u3) 0
X(i12,i9,u3) 0
Seq(i12,i9,u4) 0
X(i12,i9,u4) 0
Seq(i12,i10,u2) 0
X(i12,i10,u2) 1
X(i12,i11,u2) 1
X(i12,i11,u4) 0
Seq(i12,i13,u4) 0
X(i12,i13,u4) 0
Seq(i12,i14,u4) 0
X(i12,i14,u4) 0
Seq(i12,i15,u4) 0
X(i12,i15,u4) 0
Seq(i12,i16,u4) 0
X(i12,i16,u4) 0
Seq(i12,i17,u4) 0
X(i12,i17,u4) 0
Seq(i13,i1,u1) 0
X(i13,i1,u1) 0
Seq(i13,i1,u4) 0
X(i13,i1,u4) 0
Seq(i13,i2,u1) 0
X(i13,i2,u1) 0
Seq(i13,i2,u4) 0
X(i13,i2,u4) 0
Seq(i13,i3,u1) 0
X(i13,i3,u1) 0
Seq(i13,i3,u4) 0
X(i13,i3,u4) 0
Seq(i13,i4,u4) 0
X(i13,i4,u4) 0
Seq(i13,i5,u4) 0
X(i13,i5,u4) 0
Seq(i13,i6,u1) 0
X(i13,i6,u1) 0
Seq(i13,i6,u4) 0
X(i13,i6,u4) 0
Seq(i13,i7,u1) 0
X(i13,i7,u1) 0
Seq(i13,i7,u4) 0
X(i13,i7,u4) 0
Seq(i13,i8,u4) 0
X(i13,i8,u4) 0
Seq(i13,i9,u4) 0
X(i13,i9,u4) 0
Seq(i13,i11,u4) 0
X(i13,i11,u4) 0
Seq(i13,i12,u4) 0
X(i13,i12,u4) 0
X(i13,i14,u1) 1
X(i13,i14,u4) 0
X(i13,i15,u1) 0
X(i13,i15,u4) 0
Seq(i13,i16,u1) 0
X(i13,i16,u1) 0
Seq(i13,i16,u4) 0
X(i13,i16,u4) 0
Seq(i13,i17,u1) 0
X(i13,i17,u1) 1
Seq(i13,i17,u4) 0
X(i13,i17,u4) 0
Seq(i14,i1,u1) 0
X(i14,i1,u1) 0
Seq(i14,i1,u4) 0
X(i14,i1,u4) 0
Seq(i14,i2,u1) 0
X(i14,i2,u1) 0
Seq(i14,i2,u4) 0
X(i14,i2,u4) 0
Seq(i14,i3,u1) 0
X(i14,i3,u1) 0
Seq(i14,i3,u4) 0
X(i14,i3,u4) 0
Seq(i14,i4,u4) 0
X(i14,i4,u4) 0
Seq(i14,i5,u4) 0
X(i14,i5,u4) 0
Seq(i14,i6,u1) 0
X(i14,i6,u1) 0
Seq(i14,i6,u4) 0
X(i14,i6,u4) 0
Seq(i14,i7,u1) 0
X(i14,i7,u1) 0
Seq(i14,i7,u4) 0
X(i14,i7,u4) 0
X(i14,i8,u4) 0
Seq(i14,i9,u4) 0
X(i14,i9,u4) 0
Seq(i14,i11,u4) 0
X(i14,i11,u4) 0
Seq(i14,i12,u4) 0
X(i14,i12,u4) 0
Seq(i14,i13,u1) 0
X(i14,i13,u1) 0
Seq(i14,i13,u4) 0
X(i14,i13,u4) 0
Seq(i14,i15,u1) 0
X(i14,i15,u1) 0
Seq(i14,i15,u4) 0
X(i14,i15,u4) 0
Seq(i14,i16,u1) 0
X(i14,i16,u1) 0
Seq(i14,i16,u4) 0
X(i14,i16,u4) 0
X(i14,i17,u1) 1
X(i14,i17,u4) 0
Seq(i15,i1,u1) 0
X(i15,i1,u1) 0
Seq(i15,i1,u4) 0
X(i15,i1,u4) 0
Seq(i15,i2,u1) 0
X(i15,i2,u1) 0
Seq(i15,i2,u4) 0
X(i15,i2,u4) 1
Seq(i15,i3,u1) 0
X(i15,i3,u1) 0
Seq(i15,i3,u4) 0
X(i15,i3,u4) 0
Seq(i15,i4,u4) 0
X(i15,i4,u4) 0
Seq(i15,i5,u4) 0
X(i15,i5,u4) 0
Seq(i15,i6,u1) 0
X(i15,i6,u1) 0
Seq(i15,i6,u4) 1
X(i15,i6,u4) 1
Seq(i15,i7,u1) 0
X(i15,i7,u1) 0
Seq(i15,i7,u4) 0
X(i15,i7,u4) 0
X(i15,i8,u4) 0
Seq(i15,i9,u4) 0
X(i15,i9,u4) 0
Seq(i15,i11,u4) 0
X(i15,i11,u4) 0
Seq(i15,i12,u4) 0
X(i15,i12,u4) 0
Seq(i15,i13,u1) 0
X(i15,i13,u1) 0
Seq(i15,i13,u4) 0
X(i15,i13,u4) 0
Seq(i15,i14,u1) 0
X(i15,i14,u1) 0
Seq(i15,i14,u4) 0
X(i15,i14,u4) 0
Seq(i15,i16,u1) 0
X(i15,i16,u1) 0
Seq(i15,i16,u4) 0
X(i15,i16,u4) 1
X(i15,i17,u1) 0
X(i15,i17,u4) 0
Seq(i16,i1,u1) 0
X(i16,i1,u1) 0
Seq(i16,i1,u4) 0
X(i16,i1,u4) 0
Seq(i16,i2,u1) 0
X(i16,i2,u1) 0
Seq(i16,i2,u4) 0
X(i16,i2,u4) 0
Seq(i16,i3,u1) 0
X(i16,i3,u1) 0
Seq(i16,i3,u4) 0
X(i16,i3,u4) 0
Seq(i16,i4,u4) 0
X(i16,i4,u4) 0
Seq(i16,i5,u4) 0
X(i16,i5,u4) 0
Seq(i16,i6,u1) 0
X(i16,i6,u1) 0
Seq(i16,i6,u4) 0
X(i16,i6,u4) 0
Seq(i16,i7,u1) 0
X(i16,i7,u1) 0
Seq(i16,i7,u4) 0
X(i16,i7,u4) 0
Seq(i16,i8,u4) 0
X(i16,i8,u4) 0
Seq(i16,i9,u4) 0
X(i16,i9,u4) 0
Seq(i16,i11,u4) 1
X(i16,i11,u4) 0
Seq(i16,i12,u4) 0
X(i16,i12,u4) 0
Seq(i16,i13,u1) 0
X(i16,i13,u1) 0
Seq(i16,i13,u4) 0
X(i16,i13,u4) 0
Seq(i16,i14,u1) 0
X(i16,i14,u1) 0
Seq(i16,i14,u4) 0
X(i16,i14,u4) 0
Seq(i16,i15,u1) 0
X(i16,i15,u1) 0
Seq(i16,i15,u4) 0
X(i16,i15,u4) 0
Seq(i16,i17,u1) 0
X(i16,i17,u1) 0
Seq(i16,i17,u4) 0
X(i16,i17,u4) 0
Seq(i17,i1,u1) 0
X(i17,i1,u1) 0
Seq(i17,i1,u4) 0
X(i17,i1,u4) 0
Seq(i17,i2,u1) 0
X(i17,i2,u1) 0
Seq(i17,i2,u4) 0
X(i17,i2,u4) 0
Seq(i17,i3,u1) 0
X(i17,i3,u1) 0
Seq(i17,i3,u4) 0
X(i17,i3,u4) 0
Seq(i17,i4,u4) 0
X(i17,i4,u4) 0
Seq(i17,i5,u4) 0
X(i17,i5,u4) 0
Seq(i17,i6,u1) 0
X(i17,i6,u1) 0
Seq(i17,i6,u4) 0
X(i17,i6,u4) 0
Seq(i17,i7,u1) 0
X(i17,i7,u1) 0
Seq(i17,i7,u4) 0
X(i17,i7,u4) 0
Seq(i17,i8,u4) 0
X(i17,i8,u4) 0
Seq(i17,i9,u4) 0
X(i17,i9,u4) 0
Seq(i17,i11,u4) 0
X(i17,i11,u4) 0
Seq(i17,i12,u4) 0
X(i17,i12,u4) 0
Seq(i17,i13,u1) 0
X(i17,i13,u1) 0
Seq(i17,i13,u4) 0
X(i17,i13,u4) 0
Seq(i17,i14,u1) 0
X(i17,i14,u1) 0
Seq(i17,i14,u4) 0
X(i17,i14,u4) 0
Seq(i17,i15,u1) 0
X(i17,i15,u1) 0
Seq(i17,i15,u4) 0
X(i17,i15,u4) 0
X(i17,i16,u1) 0
X(i17,i16,u4) 0
Pos(i1,i2,u1) 1000
Pos(i1,i2,u4) 4.0000000000000018e+00
Pos(i1,i3,u1) 1000
Pos(i1,i3,u4) 9.9999999999999978e-01
Pos(i1,i4,u4) 1006
Pos(i1,i5,u4) 1.3322676295501878e-15
Pos(i1,i6,u1) 1000
Pos(i1,i6,u4) 3.0000000000000018e+00
Pos(i1,i7,u1) 1000
Pos(i1,i7,u4) 1006
Pos(i1,i8,u4) 1006
Pos(i1,i9,u4) 1006
Pos(i1,i11,u4) 1006
Pos(i1,i12,u4) 1006
Pos(i1,i13,u1) 998
Pos(i1,i13,u4) 1006
Pos(i1,i14,u1) 999
Pos(i1,i14,u4) 1006
Pos(i1,i15,u1) 1000
Pos(i1,i15,u4) 2.0000000000000018e+00
Pos(i1,i16,u1) 1000
Pos(i1,i16,u4) 4.9999999999986358e+00
Pos(i1,i17,u1) 1000
Pos(i1,i17,u4) 1006
Pos(i2,i1,u1) 1000
Pos(i2,i1,u4) 996
Pos(i2,i3,u1) 1000
Pos(i2,i3,u4) 998
Pos(i2,i4,u4) 1001
Pos(i2,i5,u4) 997
Pos(i2,i6,u1) 1000
Pos(i2,i6,u4) 1000
Pos(i2,i7,u1) 1000
Pos(i2,i7,u4) 1001
Pos(i2,i8,u4) 1001
Pos(i2,i9,u4) 1001
Pos(i2,i11,u4) 1001
Pos(i2,i12,u4) 1001
Pos(i2,i13,u1) 998
Pos(i2,i13,u4) 1001
Pos(i2,i14,u1) 999
Pos(i2,i14,u4) 1001
Pos(i2,i15,u1) 1000
Pos(i2,i15,u4) 999
Pos(i2,i16,u1) 1000
Pos(i2,i16,u4) 0
Pos(i2,i17,u1) 1000
Pos(i2,i17,u4) 1001
Pos(i3,i1,u1) 1000
Pos(i3,i1,u4) 999
Pos(i3,i2,u1) 1000
Pos(i3,i2,u4) 1.9999999999997744e+00
Pos(i3,i4,u4) 1004
Pos(i3,i5,u4) 1000
Pos(i3,i6,u1) 1000
Pos(i3,i6,u4) 1.0000000000000018e+00
Pos(i3,i7,u1) 1000
Pos(i3,i7,u4) 1004
Pos(i3,i8,u4) 1004
Pos(i3,i9,u4) 1004
Pos(i3,i11,u4) 1004
Pos(i3,i12,u4) 1004
Pos(i3,i13,u1) 998
Pos(i3,i13,u4) 1004
Pos(i3,i14,u1) 999
Pos(i3,i14,u4) 1004
Pos(i3,i15,u1) 1000
Pos(i3,i15,u4) 0
Pos(i3,i16,u1) 1000
Pos(i3,i16,u4) 2.9999999999984084e+00
Pos(i3,i17,u1) 1000
Pos(i3,i17,u4) 1004
Pos(i4,i1,u4) 994
Pos(i4,i2,u4) 999
Pos(i4,i3,u4) 996
Pos(i4,i5,u3) 1002
Pos(i4,i5,u4) 995
Pos(i4,i6,u4) 998
Pos(i4,i7,u3) 1000
Pos(i4,i7,u4) 1000
Pos(i4,i8,u3) 0
Pos(i4,i8,u4) 1000
Pos(i4,i9,u3) 1
Pos(i4,i9,u4) 1000
Pos(i4,i11,u4) 1000
Pos(i4,i12,u3) 1002
Pos(i4,i12,u4) 1000
Pos(i4,i13,u4) 1000
Pos(i4,i14,u4) 1000
Pos(i4,i15,u4) 997
Pos(i4,i16,u4) 1000
Pos(i4,i17,u4) 1000
Pos(i5,i1,u4) 1000
Pos(i5,i2,u4) 3
Pos(i5,i3,u4) 0
Pos(i5,i4,u3) 998
Pos(i5,i4,u4) 1005
Pos(i5,i6,u4) 2
Pos(i5,i7,u3) 997
Pos(i5,i7,u4) 1005
Pos(i5,i8,u3) 999
Pos(i5,i8,u4) 1005
Pos(i5,i9,u3) 1000
Pos(i5,i9,u4) 1005
Pos(i5,i11,u4) 1005
Pos(i5,i12,u3) 1000
Pos(i5,i12,u4) 1005
Pos(i5,i13,u4) 1005
Pos(i5,i14,u4) 1005
Pos(i5,i15,u4) 1
Pos(i5,i16,u4) 4
Pos(i5,i17,u4) 1005
Pos(i6,i1,u1) 1000
Pos(i6,i1,u4) 997
Pos(i6,i2,u1) 1000
Pos(i6,i2,u4) 0
Pos(i6,i3,u1) 1000
Pos(i6,i3,u4) 999
Pos(i6,i4,u4) 1002
Pos(i6,i5,u4) 998
Pos(i6,i7,u1) 1000
Pos(i6,i7,u4) 1002
Pos(i6,i8,u4) 1002
Pos(i6,i9,u4) 1002
Pos(i6,i11,u4) 1002
Pos(i6,i12,u4) 1002
Pos(i6,i13,u1) 998
Pos(i6,i13,u4) 1002
Pos(i6,i14,u1) 999
Pos(i6,i14,u4) 1002
Pos(i6,i15,u1) 1000
Pos(i6,i15,u4) 1000
Pos(i6,i16,u1) 1000
Pos(i6,i16,u4) 1
Pos(i6,i17,u1) 1000
Pos(i6,i17,u4) 1002
Pos(i7,i1,u1) 1000
Pos(i7,i1,u4) 994
Pos(i7,i2,u1) 1000
Pos(i7,i2,u4) 999
Pos(i7,i3,u1) 1000
Pos(i7,i3,u4) 996
Pos(i7,i4,u3) 0
Pos(i7,i4,u4) 1000
Pos(i7,i5,u3) 1003
Pos(i7,i5,u4) 995
Pos(i7,i6,u1) 1000
Pos(i7,i6,u4) 998
Pos(i7,i8,u3) 1
Pos(i7,i8,u4) 1000
Pos(i7,i9,u3) 2
Pos(i7,i9,u4) 1000
Pos(i7,i11,u4) 1000
Pos(i7,i12,u3) 1003
Pos(i7,i12,u4) 1000
Pos(i7,i13,u1) 998
Pos(i7,i13,u4) 1000
Pos(i7,i14,u1) 999
Pos(i7,i14,u4) 1000
Pos(i7,i15,u1) 1000
Pos(i7,i15,u4) 997
Pos(i7,i16,u1) 1000
Pos(i7,i16,u4) 1000
Pos(i7,i17,u1) 1000
Pos(i7,i17,u4) 1000
Pos(i8,i1,u4) 994
Pos(i8,i2,u4) 999
Pos(i8,i3,u4) 996
Pos(i8,i4,u3) 1000
Pos(i8,i4,u4) 1000
Pos(i8,i5,u3) 1001
Pos(i8,i5,u4) 995
Pos(i8,i6,u4) 998
Pos(i8,i7,u3) 999
Pos(i8,i7,u4) 1000
Pos(i8,i9,u3) 0
Pos(i8,i9,u4) 1000
Pos(i8,i11,u4) 1000
Pos(i8,i12,u3) 1001
Pos(i8,i12,u4) 1000
Pos(i8,i13,u4) 1000
Pos(i8,i14,u4) 1000
Pos(i8,i15,u4) 997
Pos(i8,i16,u4) 1000
Pos(i8,i17,u4) 1000
Pos(i9,i1,u4) 994
Pos(i9,i2,u4) 999
Pos(i9,i3,u4) 996
Pos(i9,i4,u3) 999
Pos(i9,i4,u4) 1000
Pos(i9,i5,u3) 1000
Pos(i9,i5,u4) 995
Pos(i9,i6,u4) 998
Pos(i9,i7,u3) 998
Pos(i9,i7,u4) 1000
Pos(i9,i8,u3) 1000
Pos(i9,i8,u4) 1000
Pos(i9,i11,u4) 1000
Pos(i9,i12,u3) 1000
Pos(i9,i12,u4) 1000
Pos(i9,i13,u4) 1000
Pos(i9,i14,u4) 1000
Pos(i9,i15,u4) 997
Pos(i9,i16,u4) 1000
Pos(i9,i17,u4) 1000
Pos(i10,i11,u2) 1000
Pos(i10,i12,u2) 999
Pos(i11,i1,u4) 994
Pos(i11,i2,u4) 999
Pos(i11,i3,u4) 996
Pos(i11,i4,u4) 1000
Pos(i11,i5,u4) 995
Pos(i11,i6,u4) 998
Pos(i11,i7,u4) 1000
Pos(i11,i8,u4) 1000
Pos(i11,i9,u4) 1000
Pos(i11,i10,u2) 2.2737367544323206e-13
Pos(i11,i12,u2) 1000
Pos(i11,i12,u4) 1000
Pos(i11,i13,u4) 1000
Pos(i11,i14,u4) 1000
Pos(i11,i15,u4) 997
Pos(i11,i16,u4) 1000
Pos(i11,i17,u4) 1000
Pos(i12,i1,u4) 994
Pos(i12,i2,u4) 999
Pos(i12,i3,u4) 996
Pos(i12,i4,u3) 998
Pos(i12,i4,u4) 1000
Pos(i12,i5,u3) 1000
Pos(i12,i5,u4) 995
Pos(i12,i6,u4) 998
Pos(i12,i7,u3) 997
Pos(i12,i7,u4) 1000
Pos(i12,i8,u3) 999
Pos(i12,i8,u4) 1000
Pos(i12,i9,u3) 1000
Pos(i12,i9,u4) 1000
Pos(i12,i10,u2) 1
Pos(i12,i11,u2) 2.2204460492503131e-16
Pos(i12,i11,u4) 1000
Pos(i12,i13,u4) 1000
Pos(i12,i14,u4) 1000
Pos(i12,i15,u4) 997
Pos(i12,i16,u4) 1000
Pos(i12,i17,u4) 1000
Pos(i13,i1,u1) 1002
Pos(i13,i1,u4) 994
Pos(i13,i2,u1) 1002
Pos(i13,i2,u4) 999
Pos(i13,i3,u1) 1002
Pos(i13,i3,u4) 996
Pos(i13,i4,u4) 1000
Pos(i13,i5,u4) 995
Pos(i13,i6,u1) 1002
Pos(i13,i6,u4) 998
Pos(i13,i7,u1) 1002
Pos(i13,i7,u4) 1000
Pos(i13,i8,u4) 1000
Pos(i13,i9,u4) 1000
Pos(i13,i11,u4) 1000
Pos(i13,i12,u4) 1000
Pos(i13,i14,u1) 0
Pos(i13,i14,u4) 1000
Pos(i13,i15,u1) 1002
Pos(i13,i15,u4) 997
Pos(i13,i16,u1) 1002
Pos(i13,i16,u4) 1000
Pos(i13,i17,u1) 1
Pos(i13,i17,u4) 1000
Pos(i14,i1,u1) 1001
Pos(i14,i1,u4) 994
Pos(i14,i2,u1) 1001
Pos(i14,i2,u4) 999
Pos(i14,i3,u1) 1001
Pos(i14,i3,u4) 996
Pos(i14,i4,u4) 1000
Pos(i14,i5,u4) 995
Pos(i14,i6,u1) 1001
Pos(i14,i6,u4) 998
Pos(i14,i7,u1) 1001
Pos(i14,i7,u4) 1000
Pos(i14,i8,u4) 1000
Pos(i14,i9,u4) 1000
Pos(i14,i11,u4) 1000
Pos(i14,i12,u4) 1000
Pos(i14,i13,u1) 1000
Pos(i14,i13,u4) 1000
Pos(i14,i15,u1) 1001
Pos(i14,i15,u4) 997
Pos(i14,i16,u1) 1001
Pos(i14,i16,u4) 1000
Pos(i14,i17,u1) 0
Pos(i14,i17,u4) 1000
Pos(i15,i1,u1) 1000
Pos(i15,i1,u4) 998
Pos(i15,i2,u1) 1000
Pos(i15,i2,u4) 1
Pos(i15,i3,u1) 1000
Pos(i15,i3,u4) 1000
Pos(i15,i4,u4) 1003
Pos(i15,i5,u4) 999
Pos(i15,i6,u1) 1000
Pos(i15,i6,u4) 0
Pos(i15,i7,u1) 1000
Pos(i15,i7,u4) 1003
Pos(i15,i8,u4) 1003
Pos(i15,i9,u4) 1003
Pos(i15,i11,u4) 1003
Pos(i15,i12,u4) 1003
Pos(i15,i13,u1) 998
Pos(i15,i13,u4) 1003
Pos(i15,i14,u1) 999
Pos(i15,i14,u4) 1003
Pos(i15,i16,u1) 1000
Pos(i15,i16,u4) 2
Pos(i15,i17,u1) 1000
Pos(i15,i17,u4) 1003
Pos(i16,i1,u1) 1000
Pos(i16,i1,u4) 995
Pos(i16,i2,u1) 1000
Pos(i16,i2,u4) 1000
Pos(i16,i3,u1) 1000
Pos(i16,i3,u4) 997
Pos(i16,i4,u4) 1000
Pos(i16,i5,u4) 996
Pos(i16,i6,u1) 1000
Pos(i16,i6,u4) 999
Pos(i16,i7,u1) 1000
Pos(i16,i7,u4) 1000
Pos(i16,i8,u4) 1000
Pos(i16,i9,u4) 1000
Pos(i16,i11,u4) 1000
Pos(i16,i12,u4) 1000
Pos(i16,i13,u1) 998
Pos(i16,i13,u4) 1000
Pos(i16,i14,u1) 999
Pos(i16,i14,u4) 1000
Pos(i16,i15,u1) 1000
Pos(i16,i15,u4) 998
Pos(i16,i17,u1) 1000
Pos(i16,i17,u4) 1000
Pos(i17,i1,u1) 1000
Pos(i17,i1,u4) 994
Pos(i17,i2,u1) 1000
Pos(i17,i2,u4) 999
Pos(i17,i3,u1) 1000
Pos(i17,i3,u4) 996
Pos(i17,i4,u4) 1000
Pos(i17,i5,u4) 995
Pos(i17,i6,u1) 1000
Pos(i17,i6,u4) 998
Pos(i17,i7,u1) 1000
Pos(i17,i7,u4) 1000
Pos(i17,i8,u4) 1000
Pos(i17,i9,u4) 1000
Pos(i17,i11,u4) 1000
Pos(i17,i12,u4) 1000
Pos(i17,i13,u1) 999
Pos(i17,i13,u4) 1000
Pos(i17,i14,u1) 1000
Pos(i17,i14,u4) 1000
Pos(i17,i15,u1) 1000
Pos(i17,i15,u4) 997
Pos(i17,i16,u1) 1000
Pos(i17,i16,u4) 1000
Seq(i1,i3,u1) 0
Seq(i1,i3,u4) 0
Seq(i1,i7,u1) 0
Seq(i1,i7,u4) 0
Seq(i1,i9,u4) 0
Seq(i2,i16,u1) 0
Seq(i2,i16,u4) 1
Seq(i3,i14,u1) 0
Seq(i3,i14,u4) 0
Seq(i3,i15,u1) 0
Seq(i3,i15,u4) 1
Seq(i4,i8,u3) 1
Seq(i4,i8,u4) 0
Seq(i5,i3,u4) 1
Seq(i6,i2,u1) 0
Seq(i6,i2,u4) 1
Seq(i7,i3,u1) 0
Seq(i7,i3,u4) 0
Seq(i7,i4,u3) 1
Seq(i7,i4,u4) 0
Seq(i8,i6,u4) 0
Seq(i11,i10,u2) 1
Seq(i12,i11,u2) 1
Seq(i12,i11,u4) 0
Seq(i13,i14,u1) 1
Seq(i13,i14,u4) 0
Seq(i13,i15,u1) 0
Seq(i13,i15,u4) 0
Seq(i14,i8,u4) 0
Seq(i14,i17,u1) 1
Seq(i14,i17,u4) 0
Seq(i15,i8,u4) 0
Seq(i15,i17,u1) 0
Seq(i15,i17,u4) 0
Seq(i17,i16,u1) 0
Seq(i17,i16,u4) 1
